c read Graph
c width = 287
c time = 187 ms
c width = 23
c time = 423 ms
c width = 21
c time = 510 ms
c width = 20
c time = 724 ms
c width = 19
c time = 1374 ms
c width = 18
c time = 2709 ms
c width = 17
c time = 4598 ms
c width = 17
c time = 4830 ms
s td 252 18 300
b 1 1 2 21
b 2 2 3 21 22
b 3 18 19 39 40
b 4 3 21 22 41
b 5 18 39 40 60
b 6 241 261 262 282
b 7 260 279 280 299
b 8 241 262 282 283
b 9 260 279 298 299
b 10 3 4 5 24
b 11 3 5 23 24 42 61
b 12 5 23 24 42 44 61 63
b 13 5 24 42 44 61 63 82
b 14 5 24 44 61 63 82 101
b 15 5 24 26 44 45 63 82 101
b 16 5 26 44 45 63 65 82 84 101
b 17 5 26 45 63 65 82 84 101 103
b 18 5 26 45 65 82 84 101 103 122
b 19 5 26 45 47 65 66 84 101 103 122
b 20 5 26 47 65 66 84 87 101 103 107 122 124 126 145
b 21 65 66 84 87 103 105 107 124 126 145
b 22 105 124 125 126 145
b 23 65 66 84 86 87 105 107 126
b 24 65 84 85 86 105
b 25 86 105 106 107 126
b 26 84 103 104 105 124
b 27 5 26 47 66 68 87 101 103 107 122 124 126 145
b 28 47 66 67 68 87
b 29 5 9 26 30 47 49 68 87 101 103 107 122 124 126 145
b 30 5 9 26 28 30 47 49 68
b 31 9 28 29 30 49
b 32 28 47 48 49 68
b 33 5 7 9 26 28 47
b 34 7 8 9 28
b 35 7 26 27 28 47
b 36 5 6 7 26
b 37 9 30 49 68 87 101 103 107 122 124 126 143 145
b 38 9 30 49 68 87 101 107 122 124 126 143 145 164
b 39 9 30 49 68 87 101 107 122 126 143 145 164 185 206 227 248 269 290
b 40 101 122 143 164 181 183 185 202 206 227 248 269 290
b 41 164 181 183 185 202 206 227 248 269 290
b 42 164 181 183 185 202 206 227 246 248 265 269 286 290
b 43 164 181 183 185 202 206 225 227 246 265 286
b 44 164 181 183 185 202 204 206 225 246 265 286
b 45 164 183 184 185 204
b 46 181 183 202 204 225 244 246 265 286
b 47 225 244 245 246 265
b 48 181 183 202 204 223 225 244 265 286
b 49 183 202 203 204 223
b 50 181 202 223 244 265 284 286
b 51 265 284 285 286
b 52 181 202 221 223 244 265 284
b 53 181 201 202 221
b 54 202 221 223 244 263 265 284
b 55 244 263 264 265 284
b 56 202 221 223 242 244 263 284
b 57 202 221 222 223 242
b 58 223 242 243 244 263
b 59 221 242 263 283 284
b 60 221 241 242 263 283
b 61 241 242 262 263 283
b 62 204 223 224 225 244
b 63 185 204 205 206 225
b 64 206 225 226 227 246
b 65 227 246 248 265 267 269 286 290
b 66 248 267 269 286 288 290
b 67 267 286 287 288
b 68 269 288 289 290
b 69 248 267 268 269 288
b 70 227 246 247 248 267
b 71 246 265 266 267 286
b 72 101 122 143 162 164 181 183 202
b 73 101 122 141 143 162 181
b 74 101 121 122 141
b 75 141 161 162 181
b 76 122 141 142 143 162
b 77 162 181 182 183 202
b 78 143 162 163 164 183
b 79 9 30 49 68 87 107 126 145 164 166 185 206 227 248 269 290
b 80 145 164 165 166 185
b 81 9 30 49 68 87 107 126 145 166 185 187 206 227 248 269 290
b 82 9 30 49 68 87 107 126 145 166 187 206 208 227 248 269 290
b 83 187 206 207 208 227
b 84 9 30 49 68 87 107 126 145 147 166 187 208 227 248 269 290
b 85 126 145 146 147 166
b 86 9 30 49 68 87 107 126 128 147 166 187 208 227 248 269 290
b 87 9 30 49 68 87 107 128 147 166 168 187 208 227 248 269 290
b 88 9 30 49 68 87 107 128 147 168 187 189 208 227 248 269 290
b 89 9 30 49 68 87 89 107 110 128 129 147 168 189 208 227 248 269 290
b 90 9 30 49 68 89 110 128 129 147 150 168 170 189 208 227 248 269 290
b 91 9 30 49 68 89 110 129 150 170 189 208 210 227 231 248 250 269 290
b 92 9 30 49 68 89 110 129 131 150 170 189 210 231 250 269 290
b 93 9 30 49 68 70 89 110 131 150 170 189 210 231 250 269 290
b 94 49 68 69 70 89
b 95 9 30 49 70 89 91 110 131 150 170 189 210 231 250 269 290
b 96 70 89 90 91 110
b 97 9 30 49 70 91 110 112 131 150 170 189 210 231 250 269 290
b 98 91 110 111 112 131
b 99 9 30 49 51 70 91 112 131 150 170 189 210 231 250 269 290
b 100 30 49 50 51 70
b 101 9 30 51 70 72 91 112 131 150 170 189 210 231 250 269 290
b 102 9 30 51 72 91 93 112 131 150 170 189 210 231 250 269 290
b 103 72 91 92 93 112
b 104 9 30 51 72 93 112 131 150 170 189 191 210 231 250 269 290
b 105 170 189 190 191 210
b 106 9 30 51 72 93 112 131 150 170 191 210 212 231 250 269 290
b 107 191 210 211 212 231
b 108 9 30 51 72 93 112 131 150 170 191 212 231 250 252 269 273 290 294
b 109 9 30 51 72 93 112 131 150 170 191 212 213 231 234 252 254 273 294
b 110 212 213 231 233 234 252 254 273
b 111 212 231 232 233 252
b 112 233 252 253 254 273
b 113 9 30 51 72 93 112 131 150 170 173 191 192 212 213 234 254 273 294
b 114 9 30 51 72 93 112 131 150 152 170 173 191 192 213 234 254 273 294
b 115 131 150 152 170 171 173 191 192
b 116 131 150 151 152 171
b 117 152 171 172 173 192
b 118 9 30 51 72 93 112 131 152 173 192 194 213 234 254 273 294
b 119 9 30 51 72 93 112 114 131 135 152 154 173 194 213 234 254 273 294
b 120 93 112 114 131 133 135 152 154 173
b 121 112 131 132 133 152
b 122 114 133 134 135 154
b 123 93 112 113 114 133
b 124 133 152 153 154 173
b 125 173 192 193 194 213
b 126 231 250 252 269 271 273 290 294
b 127 231 250 251 252 271
b 128 250 269 270 271 290
b 129 252 271 273 290 292 294
b 130 271 290 291 292
b 131 252 271 272 273 292
b 132 273 292 293 294
b 133 51 70 71 72 91
b 134 110 129 130 131 150
b 135 189 208 210 227 229 231 248 250 269
b 136 189 208 209 210 229
b 137 208 227 228 229 248
b 138 210 229 230 231 250
b 139 229 248 249 250 269
b 140 128 129 147 149 150 168 170 189
b 141 128 147 148 149 168
b 142 149 168 169 170 189
b 143 68 87 89 107 108 110 128 129
b 144 89 108 109 110 129
b 145 68 87 88 89 108
b 146 168 187 188 189 208
b 147 147 166 167 168 187
b 148 107 126 127 128 147
b 149 166 185 186 187 206
b 150 124 143 144 145 164
b 151 103 122 123 124 143
b 152 26 45 46 47 66
b 153 82 101 102 103 122
b 154 63 82 83 84 103
b 155 44 63 64 65 84
b 156 5 24 25 26 45
b 157 61 81 82 101
b 158 42 61 62 63 82
b 159 23 42 43 44 63
b 160 3 23 41 42 61
b 161 3 22 23 41 42
b 162 194 213 214 215 234
b 163 135 154 155 156 175
b 164 196 215 216 217 236
b 165 175 194 195 196 215
b 166 156 175 176 177 196
b 167 177 196 197 198 217
b 168 179 196 198 200 215 217 234 236 254 273 294
b 169 177 179 196 198 200 215 217 234 254 273 294
b 170 9 30 51 72 93 114 135 154 173 194 213 215 234 254 273 294
b 171 135 154 156 173 175 177 194 196 215
b 172 9 30 51 72 93 114 135 154 156 173 177 194 196 215 234 254 273 294
b 173 9 30 51 72 93 114 135 156 177 179 196 198 200 215 234 254 273 294
b 174 9 30 51 72 93 114 135 156 177 196 198 200 215 234 254 273 294
b 175 154 173 174 175 194
b 176 9 30 51 72 93 99 114 118 120 135 137 156 177 179 198 200
b 177 99 118 120 137 156 158 177 179 198 200
b 178 158 177 178 179 198
b 179 99 118 120 137 139 158 179 200
b 180 99 118 119 120 139
b 181 120 139 158 160 179 200
b 182 139 158 159 160 179
b 183 160 179 180 200
b 184 120 139 140 160
b 185 118 137 138 139 158
b 186 137 156 157 158 177
b 187 9 13 30 34 51 55 72 74 93 99 114 118 120 135 137 156
b 188 9 13 30 34 51 53 55 72 74 93
b 189 53 72 73 74 93
b 190 34 53 54 55 74
b 191 9 13 30 32 34 51 53 72
b 192 13 32 33 34 53
b 193 32 51 52 53 72
b 194 9 11 13 30 32 51
b 195 9 10 11 30
b 196 11 30 31 32 51
b 197 11 12 13 32
b 198 13 34 55 74 76 93 97 99 114 118 120 135 137 156
b 199 13 17 34 36 55 76 97 99 118 120
b 200 13 15 17 34 36 55
b 201 15 34 35 36 55
b 202 13 14 15 34
b 203 15 16 17 36
b 204 17 36 55 76 78 97 99 118 120
b 205 17 36 55 57 76 78 97 99 120
b 206 57 76 77 78 97
b 207 36 55 56 57 76
b 208 17 36 57 78 80 99 120
b 209 80 99 100 120
b 210 17 36 57 59 78 80 99
b 211 59 78 79 80 99
b 212 17 36 38 57 59 78 80
b 213 38 57 58 59 78
b 214 17 36 37 38 57
b 215 17 38 59 60 80
b 216 17 18 38 59 60
b 217 18 38 39 59 60
b 218 78 97 98 99 118
b 219 55 74 76 93 97 114 116 118 135 137 156
b 220 116 135 136 137 156
b 221 55 74 76 93 95 97 114 116 135
b 222 74 93 94 95 114
b 223 76 95 96 97 116
b 224 55 74 75 76 95
b 225 95 114 115 116 135
b 226 97 116 117 118 137
b 227 179 198 200 215 217 234 236 254 255 273 294
b 228 179 198 200 217 236 254 255 273 276 294 296
b 229 179 198 200 217 219 236 255 276 296
b 230 198 200 217 219 236 255 257 276 296
b 231 198 200 217 219 236 238 257 276 296
b 232 217 236 237 238 257
b 233 200 219 238 257 276 278 296 298
b 234 200 219 238 240 257 278 298
b 235 200 219 220 240
b 236 219 238 240 257 259 278 298
b 237 240 259 260 278 298
b 238 259 260 278 279 298
b 239 219 238 239 240 259
b 240 238 257 258 259 278
b 241 257 276 277 278 296 298
b 242 277 296 297 298
b 243 198 217 218 219 238
b 244 236 255 256 257 276
b 245 179 198 199 200 219
b 246 254 255 273 275 276 294 296
b 247 254 273 274 275 294
b 248 275 294 295 296
b 249 215 234 235 236 255
b 250 280 299 300
b 251 261 281 282
b 252 19 20 40
1 2
2 4
3 252
3 5
4 161
5 217
6 251
6 8
7 250
7 9
8 61
9 238
10 11
11 160
11 12
12 159
12 13
13 158
13 14
14 157
14 15
15 156
15 16
16 155
16 17
17 154
17 18
18 153
18 19
19 152
19 20
20 27
20 21
21 26
21 22
21 23
23 24
23 25
27 29
27 28
29 37
29 30
30 31
30 32
30 33
33 36
33 34
33 35
37 151
37 38
38 150
38 39
39 79
39 40
40 72
40 41
41 42
42 65
42 43
43 64
43 44
44 46
44 63
44 45
46 48
46 47
48 49
48 62
48 50
50 51
50 52
52 53
52 54
54 55
54 56
56 59
56 57
56 58
59 60
60 61
65 70
65 71
65 66
66 67
66 68
66 69
72 77
72 78
72 73
73 74
73 75
73 76
79 81
79 80
81 149
81 82
82 84
82 83
84 86
84 85
86 148
86 87
87 147
87 88
88 146
88 89
89 143
89 90
90 140
90 91
91 135
91 92
92 134
92 93
93 94
93 95
95 96
95 97
97 99
97 98
99 101
99 100
101 133
101 102
102 104
102 103
104 106
104 105
106 108
106 107
108 126
108 109
109 113
109 110
110 111
110 112
113 114
114 118
114 115
115 116
115 117
118 125
118 119
119 170
119 120
120 121
120 122
120 123
120 124
126 129
126 128
126 127
129 131
129 132
129 130
135 139
135 136
135 137
135 138
140 141
140 142
143 144
143 145
160 161
162 170
163 171
164 168
165 171
166 171
167 169
168 227
168 169
169 173
170 172
171 175
171 172
172 174
173 176
173 174
176 187
176 177
177 178
177 179
177 186
179 180
179 181
179 185
181 184
181 183
181 182
187 188
187 198
188 190
188 189
188 191
191 192
191 193
191 194
194 195
194 197
194 196
198 219
198 199
199 200
199 204
200 202
200 203
200 201
204 218
204 205
205 207
205 206
205 208
208 209
208 210
210 211
210 212
212 215
212 214
212 213
215 216
216 217
219 226
219 220
219 221
221 224
221 222
221 223
221 225
227 228
227 249
228 246
228 229
229 245
229 230
230 244
230 231
231 243
231 232
231 233
233 241
233 234
234 235
234 236
236 237
236 239
236 240
237 238
241 242
246 248
246 247
